<instance format="XCSP3" type="COP">
  <variables>
    <array id="x" size="[40]"> 0 1 </array>
  </variables>
  <constraints>
    <sum>
      <list> x[] </list>
      <coeffs> 32 14 1 12 25 20 25 4 3 23 16 23 4 2 3 28 11 28 17 27 8 18 14 29 12 32 16 25 21 32 20 37 32 7 16 18 19 22 33 2 </coeffs>
      <condition> (le,150) </condition>
    </sum>
  </constraints>
  <objectives>
    <maximize type="sum">
      <list> x[] </list>
      <coeffs> 16 61 78 38 78 93 21 89 1 58 53 34 77 56 37 46 59 30 5 85 1 52 87 84 99 97 9 15 66 29 60 17 16 59 23 88 93 32 2 98 </coeffs>
    </maximize>
  </objectives>
</instance>
